c 1 cycle bool
c 2 V bool
c 3 F bool
c 4 relaxParameter bool
c 5 smoother bool
c 6 Jacobi bool
c 7 colorGS bool
c 8 line bool
c 9 zebraLine bool
c 10 preSmoothing_3 numeric
c 11 preSmoothing_2 numeric
c 12 preSmoothing_1 numeric
c 13 preSmoothing_0 numeric
c 14 postSmoothing_3 numeric
c 15 postSmoothing_2 numeric
c 16 postSmoothing_1 numeric
c 17 postSmoothing_0 numeric
c 18 alpha_4 numeric
c 19 alpha_3 numeric
c 20 alpha_2 numeric
c 21 alpha_1 numeric
c 22 alpha_0 numeric
c 23 beta_4 numeric
c 24 beta_3 numeric
c 25 beta_2 numeric
c 26 beta_1 numeric
c 27 beta_0 numeric
p cnf 27 107
1 0
-1 2 3 0
-2 -3 0
5 0
-5 6 7 8 9 0
-6 -7 0
-6 -8 0
-6 -9 0
-7 -8 0
-7 -9 0
-8 -9 0
-10 -11 0
-10 -12 0
-10 -11 -12 0
-10 -13 0
-10 -12 -13 0
-10 -11 -13 0
-10 -11 -12 -13 0
-14 -15 0
-14 -16 0
-14 -15 -16 0
-14 -17 0
-14 -16 -17 0
-14 -15 -17 0
-14 -15 -16 -17 0
-18 -19 0
-18 -20 0
-18 -19 -20 0
-18 -21 0
-18 -20 -21 0
-18 -19 -21 0
-18 -19 -20 -21 0
-23 -24 0
-23 -25 0
-23 -24 -25 0
-23 -26 0
-23 -25 -26 0
-23 -24 -26 0
-23 -24 -25 -26 0
10 11 12 13 14 15 16 17 0
-18 19 20 21 -22 -23 24 25 26 -27 0
23 18 19 20 21 22 0
23 24 18 19 20 21 -22 0
23 24 25 18 19 20 21 -22 0
23 25 18 19 20 21 -22 0
23 24 25 26 18 19 20 21 -22 0
23 24 26 18 19 20 21 -22 0
23 25 26 18 19 20 21 -22 0
23 26 18 19 20 21 -22 0
23 24 25 26 27 18 19 20 21 -22 0
23 24 25 27 18 19 20 21 -22 0
23 24 26 27 18 19 20 21 -22 0
23 24 27 18 19 20 21 -22 0
23 25 26 27 18 19 20 21 -22 0
23 25 27 18 19 20 21 -22 0
23 26 27 18 19 20 21 -22 0
23 27 18 19 20 21 -22 0
23 24 18 19 20 -21 22 0
23 24 25 18 19 20 -21 22 0
23 25 18 19 20 -21 22 0
23 24 25 26 18 19 20 -21 22 0
23 24 26 18 19 20 -21 22 0
23 25 26 18 19 20 -21 22 0
23 26 18 19 20 -21 22 0
23 24 18 19 20 -21 -22 0
23 24 25 18 19 20 -21 -22 0
23 25 18 19 20 -21 -22 0
23 24 25 26 27 18 19 20 -21 -22 0
23 24 26 27 18 19 20 -21 -22 0
23 25 26 27 18 19 20 -21 -22 0
23 26 27 18 19 20 -21 -22 0
23 24 18 19 -20 21 22 0
23 24 25 18 19 -20 21 22 0
23 25 18 19 -20 21 22 0
23 24 18 19 -20 21 -22 0
23 24 25 26 18 19 -20 21 -22 0
23 25 26 18 19 -20 21 -22 0
23 24 25 26 27 18 19 -20 21 -22 0
23 24 25 27 18 19 -20 21 -22 0
23 25 26 27 18 19 -20 21 -22 0
23 25 27 18 19 -20 21 -22 0
23 24 18 19 -20 -21 22 0
23 24 25 26 18 19 -20 -21 22 0
23 25 26 18 19 -20 -21 22 0
23 24 18 19 -20 -21 -22 0
23 24 25 26 27 18 19 -20 -21 -22 0
23 25 26 27 18 19 -20 -21 -22 0
23 24 18 -19 20 21 22 0
23 24 25 18 -19 20 21 -22 0
23 24 25 26 18 -19 20 21 -22 0
23 24 26 18 -19 20 21 -22 0
23 24 25 26 27 18 -19 20 21 -22 0
23 24 25 27 18 -19 20 21 -22 0
23 24 26 27 18 -19 20 21 -22 0
23 24 27 18 -19 20 21 -22 0
23 24 25 18 -19 20 -21 22 0
23 24 25 26 18 -19 20 -21 22 0
23 24 26 18 -19 20 -21 22 0
23 24 25 18 -19 20 -21 -22 0
23 24 25 26 27 18 -19 20 -21 -22 0
23 24 26 27 18 -19 20 -21 -22 0
23 24 25 18 -19 -20 21 22 0
23 24 25 26 18 -19 -20 21 -22 0
23 24 25 26 27 18 -19 -20 21 -22 0
23 24 25 27 18 -19 -20 21 -22 0
23 24 25 26 18 -19 -20 -21 22 0
23 24 25 26 27 18 -19 -20 -21 -22 0
